c Reduced graph for p32_0 generated by Cyril Grelier
p edge 46 193
e 1 7
e 1 12
e 1 21
e 1 27
e 1 28
e 1 33
e 1 45
e 1 46
e 2 8
e 2 14
e 2 19
e 2 32
e 2 34
e 3 10
e 3 17
e 3 26
e 3 35
e 3 37
e 3 43
e 3 44
e 4 7
e 4 13
e 4 25
e 4 28
e 4 29
e 4 43
e 5 15
e 5 20
e 5 23
e 5 25
e 5 26
e 5 31
e 5 45
e 6 10
e 6 15
e 6 16
e 6 17
e 6 18
e 6 19
e 6 22
e 6 24
e 6 32
e 6 38
e 6 40
e 6 41
e 6 42
e 7 12
e 7 21
e 7 25
e 7 29
e 7 33
e 7 46
e 8 11
e 8 12
e 8 16
e 8 32
e 8 34
e 9 20
e 9 24
e 9 34
e 9 39
e 9 44
e 9 46
e 10 16
e 10 19
e 10 22
e 10 24
e 10 26
e 10 41
e 10 43
e 11 12
e 11 16
e 11 36
e 11 40
e 12 16
e 12 21
e 12 33
e 12 46
e 13 22
e 13 28
e 13 43
e 14 19
e 14 38
e 15 17
e 15 18
e 15 20
e 15 23
e 15 25
e 15 26
e 15 31
e 15 32
e 15 38
e 15 40
e 15 42
e 15 45
e 16 19
e 16 22
e 16 24
e 16 41
e 17 18
e 17 32
e 17 35
e 17 37
e 17 38
e 17 40
e 17 42
e 17 44
e 18 27
e 18 29
e 18 30
e 18 32
e 18 38
e 18 39
e 18 40
e 18 42
e 19 22
e 19 24
e 19 41
e 20 23
e 20 24
e 20 25
e 20 26
e 20 31
e 20 34
e 20 39
e 20 44
e 20 45
e 20 46
e 21 23
e 21 33
e 21 35
e 21 41
e 21 46
e 22 24
e 22 41
e 23 25
e 23 26
e 23 31
e 23 35
e 23 41
e 23 45
e 24 34
e 24 39
e 24 41
e 24 44
e 24 46
e 25 26
e 25 29
e 25 31
e 25 45
e 26 31
e 26 43
e 26 45
e 27 28
e 27 29
e 27 30
e 27 39
e 27 45
e 28 43
e 28 45
e 29 30
e 29 39
e 30 31
e 30 33
e 30 36
e 30 37
e 30 39
e 31 33
e 31 36
e 31 37
e 31 45
e 32 34
e 32 38
e 32 40
e 32 42
e 33 36
e 33 37
e 33 46
e 34 39
e 34 44
e 34 46
e 35 37
e 35 41
e 35 44
e 36 37
e 36 40
e 37 44
e 38 40
e 38 42
e 39 44
e 39 46
e 40 42
e 44 46
